db/data/30772905716131487047929769839427082.z3.out
sat
-------------------
1848.427981548
